single_objective/SL-DABL/OP/problems/op/OPLib-master/instances/gen1/pr136-gen1-50.oplib
NAME : pr136
COMMENT : 136-city problem (Padberg/Rinaldi)
TYPE : OP
DIMENSION : 136
COST_LIMIT : 48386
EDGE_WEIGHT_TYPE : EUC_2D
NODE_COORD_SECTION
1 5300 1965
2 7275 1965
3 12450 1965
4 14425 1965
5 4118 2275
6 4743 2275
7 5935 2275
8 6560 2275
9 11268 2275
10 11893 2275
11 13085 2275
12 13710 2275
13 14425 2590
14 12450 2590
15 10250 2675
16 7275 2590
17 5300 2590
18 3100 2675
19 5300 2760
20 7275 2760
21 12450 2760
22 14425 2760
23 13710 3075
24 13085 3075
25 11893 3075
26 11268 3075
27 6560 3075
28 5935 3075
29 4743 3075
30 4118 3075
31 5300 3385
32 7275 3385
33 12450 3385
34 14425 3385
35 14425 4515
36 12450 4515
37 7275 4515
38 5300 4515
39 4118 4825
40 4743 4825
41 5935 4825
42 6560 4825
43 11268 4825
44 11893 4825
45 13085 4825
46 13710 4825
47 14425 5140
48 12450 5140
49 10250 5225
50 7275 5140
51 5300 5140
52 3100 5225
53 5300 5310
54 7275 5310
55 12450 5310
56 14425 5310
57 13710 5625
58 13085 5625
59 11893 5625
60 11268 5625
61 6560 5625
62 5935 5625
63 4743 5625
64 4118 5625
65 5300 5935
66 7275 5935
67 12450 5935
68 14425 5935
69 14425 7065
70 12450 7065
71 7275 7065
72 5300 7065
73 4118 7375
74 4743 7375
75 5935 7375
76 6560 7375
77 11268 7375
78 11893 7375
79 13085 7375
80 13710 7375
81 14425 7690
82 12450 7690
83 7275 7690
84 5300 7690
85 3100 7775
86 5300 7860
87 7275 7860
88 10250 7775
89 12450 7860
90 14425 7860
91 13710 8175
92 13085 8175
93 11893 8175
94 11268 8175
95 6560 8175
96 5935 8175
97 4743 8175
98 4118 8175
99 5300 8485
100 7275 8485
101 12450 8485
102 14425 8485
103 14425 9615
104 12450 9615
105 7275 9615
106 5300 9615
107 4118 9925
108 4743 9925
109 5935 9925
110 6560 9925
111 11268 9925
112 11893 9925
113 13085 9925
114 13710 9925
115 14425 10240
116 12450 10240
117 7275 10240
118 5300 10240
119 3100 10325
120 5300 10410
121 7275 10410
122 10250 10325
123 12450 10410
124 14425 10410
125 13710 10725
126 13085 10725
127 11893 10725
128 11268 10725
129 6560 10725
130 5935 10725
131 4743 10725
132 4118 10725
133 14425 11035
134 12450 11035
135 7275 11035
136 5300 11035
NODE_SCORE_SECTION
1 1
2 1
3 1
4 1
5 1
6 1
7 1
8 1
9 1
10 1
11 1
12 1
13 1
14 1
15 1
16 1
17 1
18 1
19 1
20 1
21 1
22 1
23 1
24 1
25 1
26 1
27 1
28 1
29 1
30 1
31 1
32 1
33 1
34 1
35 1
36 1
37 1
38 1
39 1
40 1
41 1
42 1
43 1
44 1
45 1
46 1
47 1
48 1
49 1
50 1
51 1
52 1
53 1
54 1
55 1
56 1
57 1
58 1
59 1
60 1
61 1
62 1
63 1
64 1
65 1
66 1
67 1
68 1
69 1
70 1
71 1
72 1
73 1
74 1
75 1
76 1
77 1
78 1
79 1
80 1
81 1
82 1
83 1
84 1
85 1
86 1
87 1
88 1
89 1
90 1
91 1
92 1
93 1
94 1
95 1
96 1
97 1
98 1
99 1
100 1
101 1
102 1
103 1
104 1
105 1
106 1
107 1
108 1
109 1
110 1
111 1
112 1
113 1
114 1
115 1
116 1
117 1
118 1
119 1
120 1
121 1
122 1
123 1
124 1
125 1
126 1
127 1
128 1
129 1
130 1
131 1
132 1
133 1
134 1
135 1
136 1
DEPOT_SECTION
1
-1
EOF
