single_objective/SL-DABL/OP/problems/op/OPLib-master/solutions/ea4op/gen1/pr136-gen1-50.sol
NAME : pr136
TYPE : OP
DIMENSION : 136
COST_LIMIT : 48386
ROUTE_NODES : 71
ROUTE_SCORE : 71
ROUTE_COST : 48244
NODE_SEQUENCE_SECTION
1
17
19
31
38
51
53
65
62
61
50
54
66
71
83
87
76
75
84
86
99
106
108
118
120
130
129
121
117
122
128
127
134
123
116
126
125
124
115
103
102
90
81
80
79
89
82
70
67
55
48
45
46
56
47
35
34
22
13
23
24
21
14
3
10
9
15
20
16
8
7
-1
DEPOT_SECTION
1
-1
EOF
